experiments/knapsack_bounded/knapsack_bounded_15_9.mps
NAME
ROWS
 N  OBJ
 L  c1
 L  c2
 L  c3
 L  c4
 L  c5
 L  c6
 L  c7
 L  c8
 L  c9
 L  c10
 L  c11
 L  c12
 L  c13
 L  c14
 L  c15
 L  c16
COLUMNS
    MARKER    'MARKER'                 'INTORG'
    x[1]      c1        59
    x[1]      c2        1
    x[1]      OBJ       -297
    x[2]      c1        681
    x[2]      c3        1
    x[2]      OBJ       -438
    x[3]      c1        79
    x[3]      c4        1
    x[3]      OBJ       -738
    x[4]      c1        246
    x[4]      c5        1
    x[4]      OBJ       -88
    x[5]      c1        513
    x[5]      c6        1
    x[5]      OBJ       -868
    x[6]      c1        644
    x[6]      c7        1
    x[6]      OBJ       -29
    x[7]      c1        648
    x[7]      c8        1
    x[7]      OBJ       -740
    x[8]      c1        105
    x[8]      c9        1
    x[8]      OBJ       -510
    x[9]      c1        868
    x[9]      c10       1
    x[9]      OBJ       -985
    x[10]     c1        497
    x[10]     c11       1
    x[10]     OBJ       -456
    x[11]     c1        2
    x[11]     c12       1
    x[11]     OBJ       -637
    x[12]     c1        646
    x[12]     c13       1
    x[12]     OBJ       -222
    x[13]     c1        7
    x[13]     c14       1
    x[13]     OBJ       -573
    x[14]     c1        343
    x[14]     c15       1
    x[14]     OBJ       -547
    x[15]     c1        415
    x[15]     c16       1
    x[15]     OBJ       -982
    MARKER    'MARKER'                 'INTEND'
RHS
    rhs       c1        2876
    rhs       c2        2
    rhs       c3        10
    rhs       c4        1
    rhs       c5        1
    rhs       c6        7
    rhs       c7        9
    rhs       c8        7
    rhs       c9        9
    rhs       c10       9
    rhs       c11       7
    rhs       c12       8
    rhs       c13       10
    rhs       c14       8
    rhs       c15       5
    rhs       c16       6
RANGES
BOUNDS
 LO bounds    x[1]      0
 PL bounds    x[1]
 LO bounds    x[2]      0
 PL bounds    x[2]
 LO bounds    x[3]      0
 PL bounds    x[3]
 LO bounds    x[4]      0
 PL bounds    x[4]
 LO bounds    x[5]      0
 PL bounds    x[5]
 LO bounds    x[6]      0
 PL bounds    x[6]
 LO bounds    x[7]      0
 PL bounds    x[7]
 LO bounds    x[8]      0
 PL bounds    x[8]
 LO bounds    x[9]      0
 PL bounds    x[9]
 LO bounds    x[10]     0
 PL bounds    x[10]
 LO bounds    x[11]     0
 PL bounds    x[11]
 LO bounds    x[12]     0
 PL bounds    x[12]
 LO bounds    x[13]     0
 PL bounds    x[13]
 LO bounds    x[14]     0
 PL bounds    x[14]
 LO bounds    x[15]     0
 PL bounds    x[15]
ENDATA
